50
    1   425   415
    2   162   152
    3   474   464
    4   470   460
    5   884   874
    6   444   434
    7   905   895
    8   884   874
    9   758   748
   10   389   379
   11   447   437
   12   417   407
   13   439   429
   14   973   963
   15   553   543
   16   155   145
   17   871   861
   18   554   544
   19   888   878
   20    74    64
   21   365   355
   22    19     9
   23   393   383
   24    67    57
   25   726   716
   26   215   205
   27   194   184
   28   482   472
   29    38    28
   30   323   313
   31   138   128
   32   436   426
   33   735   725
   34   498   488
   35   950   940
   36   442   432
   37   899   889
   38   222   212
   39   540   530
   40    49    39
   41    63    53
   42   285   275
   43   733   723
   44   791   781
   45   886   876
   46   936   926
   47   764   754
   48   968   958
   49   950   940
   50   133   123
20755
